
Gurobi 10.0.1 (linux64) logging started Sun Nov 26 15:45:14 2023

Set parameter LogFile to value "ArtificialInstance/ExperimentV2/S4T3K1/AdRo/gurobi91.txt"
Gurobi Optimizer version 10.0.1 build v10.0.1rc0 (linux64)

CPU model: AMD EPYC 7H12 64-Core Processor, instruction set [SSE2|AVX|AVX2]
Thread count: 128 physical cores, 128 logical processors, using up to 32 threads

Academic license 656792 - for non-commercial use only - registered to b.___@student.vu.nl
Optimize a model with 3739 rows, 3606 columns and 14263 nonzeros
Model fingerprint: 0x85ab8337
Variable types: 1 continuous, 3605 integer (3605 binary)
Coefficient statistics:
  Matrix range     [1e+00, 4e+01]
  Objective range  [1e+00, 2e+01]
  Bounds range     [1e+00, 1e+00]
  RHS range        [1e+00, 1e+00]
Presolve removed 349 rows and 329 columns
Presolve time: 0.05s
Presolved: 3390 rows, 3277 columns, 13358 nonzeros
Variable types: 1 continuous, 3276 integer (3276 binary)
Found heuristic solution: objective 208.7104646

Root relaxation: objective 5.015966e+01, 3273 iterations, 0.15 seconds (0.13 work units)

    Nodes    |    Current Node    |     Objective Bounds      |     Work
 Expl Unexpl |  Obj  Depth IntInf | Incumbent    BestBd   Gap | It/Node Time

     0     0   50.15966    0  510  208.71046   50.15966  76.0%     -    0s
H    0     0                     175.0596238   50.15966  71.3%     -    0s
H    0     0                     172.2412421   50.15966  70.9%     -    0s
H    0     0                     161.4796857   50.15966  68.9%     -    0s
H    0     0                      96.4410903   50.15966  48.0%     -    0s
     0     0   52.17595    0  675   96.44109   52.17595  45.9%     -    0s
H    0     0                      85.1482834   52.17595  38.7%     -    0s
H    0     0                      64.3567070   55.40672  13.9%     -    0s
     0     0   55.40672    0  625   64.35671   55.40672  13.9%     -    0s
     0     0   55.43253    0  629   64.35671   55.43253  13.9%     -    0s
     0     0   55.43253    0  631   64.35671   55.43253  13.9%     -    0s
     0     0   56.40430    0  721   64.35671   56.40430  12.4%     -    1s
H    0     0                      63.9318617   56.40430  11.8%     -    1s
     0     0   56.44605    0  737   63.93186   56.44605  11.7%     -    1s
     0     0   56.44605    0  738   63.93186   56.44605  11.7%     -    1s
H    0     0                      62.8788936   56.99549  9.36%     -    1s
     0     0   57.38719    0  739   62.87889   57.38719  8.73%     -    1s
     0     0   57.38745    0  736   62.87889   57.38745  8.73%     -    1s
     0     0   57.38745    0  740   62.87889   57.38745  8.73%     -    1s
H    0     0                      61.5566017   57.57461  6.47%     -    1s
     0     0   57.57461    0  679   61.55660   57.57461  6.47%     -    1s
     0     0   57.57461    0  693   61.55660   57.57461  6.47%     -    1s
     0     0   57.57461    0  731   61.55660   57.57461  6.47%     -    1s
     0     0   57.97017    0  589   61.55660   57.97017  5.83%     -    1s
     0     0   57.99030    0  577   61.55660   57.99030  5.79%     -    1s
     0     0   57.99030    0  577   61.55660   57.99030  5.79%     -    1s
     0     0   58.01089    0  667   61.55660   58.01089  5.76%     -    1s
     0     0   58.16359    0  649   61.55660   58.16359  5.51%     -    1s
     0     0   58.16359    0  503   61.55660   58.16359  5.51%     -    2s
     0     0   58.16359    0  611   61.55660   58.16359  5.51%     -    2s
     0     0   58.16359    0  544   61.55660   58.16359  5.51%     -    2s
     0     0   58.16359    0  588   61.55660   58.16359  5.51%     -    2s
     0     0   58.16359    0  588   61.55660   58.16359  5.51%     -    2s
     0     0   58.16359    0  656   61.55660   58.16359  5.51%     -    2s
     0     0   58.16359    0  635   61.55660   58.16359  5.51%     -    2s
     0     0   58.16359    0  633   61.55660   58.16359  5.51%     -    2s
     0     0   58.16359    0  652   61.55660   58.16359  5.51%     -    2s
     0     0   58.20923    0  719   61.55660   58.20923  5.44%     -    2s
     0     0   58.21127    0  730   61.55660   58.21127  5.43%     -    3s
     0     0   58.27205    0  708   61.55660   58.27205  5.34%     -    3s
     0     0   58.32823    0  771   61.55660   58.32823  5.24%     -    3s
     0     0   58.34520    0  776   61.55660   58.34520  5.22%     -    3s
     0     0   58.34520    0  776   61.55660   58.34520  5.22%     -    3s
     0     0   58.50515    0  777   61.55660   58.50515  4.96%     -    3s
     0     0   58.50515    0  780   61.55660   58.50515  4.96%     -    3s
     0     0   58.50515    0  775   61.55660   58.50515  4.96%     -    3s
     0     0   58.50515    0  773   61.55660   58.50515  4.96%     -    3s
     0     0   58.95336    0  775   61.55660   58.95336  4.23%     -    3s
     0     0   58.95336    0  775   61.55660   58.95336  4.23%     -    3s
     0     0   58.95336    0  479   61.55660   58.95336  4.23%     -    3s
     0     0   58.95336    0  545   61.55660   58.95336  4.23%     -    3s
     0     0   58.95336    0  633   61.55660   58.95336  4.23%     -    4s
     0     0   58.95336    0  738   61.55660   58.95336  4.23%     -    4s
     0     0   58.95336    0  729   61.55660   58.95336  4.23%     -    4s
     0     0   58.95336    0  748   61.55660   58.95336  4.23%     -    4s
     0     0   58.95336    0  689   61.55660   58.95336  4.23%     -    4s
     0     0   58.95336    0  694   61.55660   58.95336  4.23%     -    4s
     0     0   58.95336    0  707   61.55660   58.95336  4.23%     -    4s
     0     0   58.95336    0  712   61.55660   58.95336  4.23%     -    4s
     0     0   58.95336    0  708   61.55660   58.95336  4.23%     -    4s
     0     0   58.96078    0  718   61.55660   58.96078  4.22%     -    4s
     0     0   59.54610    0  719   61.55660   59.54610  3.27%     -    4s
     0     0   59.76478    0  721   61.55660   59.76478  2.91%     -    4s
     0     0   61.24651    0  722   61.55660   61.24651  0.50%     -    4s

Cutting planes:
  Gomory: 4
  Clique: 4
  Zero half: 45
  RLT: 14

Explored 1 nodes (24901 simplex iterations) in 4.63 seconds (3.09 work units)
Thread count was 32 (of 128 available processors)

Solution count 10: 61.5566 62.8789 63.9319 ... 208.71

Optimal solution found (tolerance 1.00e-04)
Best objective 6.155660169535e+01, best bound 6.155660169535e+01, gap 0.0000%
